StudentsNr = 10;
InstructorsNr = 21;
DaysNr = 1;
SlotsPerDay = 20;
AvailabilitySlotsLenght = 5;
RoomNr = 1;
ProgrammNr = 1;
DegreeNr = 3;
RolesNr = 1;
CoursesNr = 6;
InstructorsProgramm = [{1}, {1}, {1}, {1}, {1}, {1}, {1}, {1}, {1}, {1}, {1}, {1}, {1}, {1}, {1}, {1}, {1}, {1}, {1}, {1}, {1}];
InstructorRolesPerProgramm = [|{1, 3, 6, 7, 8, 14, 15, 16, 17, 18, 20}|];
InstructorsAvailability = [|1, 1, 1, 1, |1, 1, 0, 1, |0, 1, 0, 1, |0, 0, 1, 1, |1, 1, 1, 1, |0, 1, 0, 1, |0, 0, 1, 1, |1, 1, 1, 1, |1, 1, 1, 1, |1, 1, 1, 1, |1, 1, 1, 1, |0, 0, 0, 1, |1, 1, 1, 1, |0, 1, 1, 1, |1, 1, 1, 1, |1, 1, 1, 1, |0, 0, 1, 0, |0, 0, 0, 1, |0, 0, 1, 1, |1, 1, 0, 0, |1, 1, 1, 1|];
StudentsProgramm = [1, 1, 1, 1, 1, 1, 1, 1, 1, 1];
StudentsDegree = [2, 2, 1, 2, 3, 3, 1, 1, 3, 3];
StudentsSupervisorId = [7, 18, 8, 16, 17, 11, 17, 5, 17, 1];
StudentsCourseIds = [{1}, {1}, {6}, {3}, {3}, {6}, {5}, {4}, {4}, {1}];
StudentsAvailability = [|1, 1, 1, 1, |0, 0, 0, 1, |0, 1, 1, 1, |0, 1, 1, 1, |1, 1, 1, 1, |1, 1, 1, 1, |1, 0, 0, 0, |1, 1, 1, 1, |1, 1, 0, 0, |1, 1, 1, 1|];
TheoryticalMinCard = [0, 0, 0, 0, 0, 1, 0, 0, 0, 0];
CoursesInstructorIds = [{1, 4, 5, 6, 7, 10, 13, 16, 17, 18, 19, 21}, {1, 10, 12, 13, 14, 18, 19}, {1, 3, 4, 5, 6, 7, 8, 9, 10, 15, 16, 18}, {4, 5, 17, 21}, {1, 3, 5, 6, 10, 12, 14, 15, 21}, {8, 10, 21}];
RolesDemands = [4];
RolesContinuity = [];
ExamLen = [1, 1, 1, 1, 1, 1, 1, 1, 1, 1];
LunchTsMinLen = 1;
LunchStarts = [8..13];
SupervisorAvailable = 0;
OptimalLunchLenght = [1, 1];
OptimalStartTs = [0, 0];
OptimalFinishTs = [1, 20];
MinimizeRooms = 0;
RolesSoftContinuity = [|1|1|];
SameDegreeInRoom = 20;
Mergeability = 1;
